
Gurobi 10.0.1 (linux64) logging started Tue Sep 12 17:53:24 2023

Set parameter LogFile to value "./log/esc16j/esc16j.log"
Set parameter TimeLimit to value 180
Gurobi Optimizer version 10.0.1 build v10.0.1rc0 (linux64)

CPU model: 12th Gen Intel(R) Core(TM) i5-12600KF, instruction set [SSE2|AVX|AVX2]
Thread count: 8 physical cores, 16 logical processors, using up to 16 threads

Optimize a model with 32 rows, 256 columns and 512 nonzeros
Model fingerprint: 0x398294c9
Model has 2112 quadratic objective terms
Variable types: 0 continuous, 256 integer (256 binary)
Coefficient statistics:
  Matrix range     [1e+00, 1e+00]
  Objective range  [0e+00, 0e+00]
  QObjective range [4e+00, 2e+01]
  Bounds range     [1e+00, 1e+00]
  RHS range        [1e+00, 1e+00]
Found heuristic solution: objective 36.0000000
Presolve time: 0.01s
Presolved: 96 rows, 320 columns, 2752 nonzeros
Variable types: 0 continuous, 320 integer (256 binary)

Root relaxation: objective 0.000000e+00, 56 iterations, 0.00 seconds (0.00 work units)

    Nodes    |    Current Node    |     Objective Bounds      |     Work
 Expl Unexpl |  Obj  Depth IntInf | Incumbent    BestBd   Gap | It/Node Time

     0     0    0.00000    0    8   36.00000    0.00000   100%     -    0s
H    0     0                      12.0000000    0.00000   100%     -    0s
     0     0    0.00000    0   17   12.00000    0.00000   100%     -    0s
H    0     0                      10.0000000    0.00000   100%     -    0s
     0     0    0.00000    0    9   10.00000    0.00000   100%     -    0s
H    0     0                       8.0000000    0.00000   100%     -    0s
     0     0    0.00000    0   11    8.00000    0.00000   100%     -    0s
     0     0    0.00000    0    9    8.00000    0.00000   100%     -    0s
     0     0    0.00000    0   11    8.00000    0.00000   100%     -    0s
     0     0    0.00000    0   11    8.00000    0.00000   100%     -    0s
     0     0    0.00000    0   11    8.00000    0.00000   100%     -    0s
     0     0    2.00000    0   11    8.00000    2.00000  75.0%     -    0s
     0     0    2.00000    0   23    8.00000    2.00000  75.0%     -    0s
     0     0    2.00000    0   20    8.00000    2.00000  75.0%     -    0s
     0     0    2.00000    0   10    8.00000    2.00000  75.0%     -    0s
     0     0    2.00000    0    9    8.00000    2.00000  75.0%     -    0s
     0     0    2.00000    0   11    8.00000    2.00000  75.0%     -    0s
     0     0    2.00000    0   19    8.00000    2.00000  75.0%     -    0s
     0     0    2.00000    0   13    8.00000    2.00000  75.0%     -    0s
     0     0    2.00000    0   13    8.00000    2.00000  75.0%     -    0s
     0     2    2.00000    0   13    8.00000    2.00000  75.0%     -    0s

Cutting planes:
  Cover: 1
  Clique: 1
  MIR: 12

Explored 46 nodes (2359 simplex iterations) in 0.14 seconds (0.12 work units)
Thread count was 16 (of 16 available processors)

Solution count 4: 8 10 12 36 

Optimal solution found (tolerance 1.00e-04)
Best objective 8.000000000000e+00, best bound 8.000000000000e+00, gap 0.0000%
